letting n_nurses=25
letting n_days=7
letting n_shift_types=4
letting max_covers=9
letting t_covers=87
letting covers=[4,9,5,0,6,7,3,0,6,8,3,0,6,8,3,0,2,2,5,0,2,2,1,0,2,2,1,0]
letting prefes=[3,1,4,2,2,3,1,4,2,3,1,4,3,4,1,2,3,4,1,2,2,3,1,4,3,1,4,2,1,2,4,1,2,3,1,4,2,3,1,4,2,3,3,1,2,3,3,1,2,3,1,4,1,2,4,1,3,2,1,4,1,1,4,2,1,1,4,2,2,1,1,4,2,1,1,4,1,1,4,2,3,2,1,4,3,4,1,2,3,2,1,4,3,2,1,4,1,3,1,2,1,3,1,2,3,2,1,4,3,4,1,2,1,2,3,4,1,1,3,2,1,1,3,2,2,1,3,4,2,1,3,4,1,1,3,2,1,2,3,4,1,2,1,4,1,2,3,4,1,2,3,4,1,1,3,4,1,1,3,4,1,2,3,4,1,2,1,4,2,1,1,4,4,1,2,1,4,1,2,1,2,1,3,4,2,1,3,4,4,1,2,1,2,1,1,4,3,2,4,1,1,2,1,4,1,2,1,4,2,3,1,1,2,3,1,1,1,2,1,4,3,2,4,1,1,3,4,2,1,1,3,2,1,1,3,2,1,3,1,2,1,3,1,2,1,1,3,2,1,3,4,2,1,3,2,4,1,1,3,2,1,1,3,2,2,3,1,4,2,3,1,4,1,1,3,2,1,3,2,4,1,1,4,2,1,1,4,2,1,1,4,2,4,1,1,2,4,1,1,2,1,1,4,2,1,1,4,2,3,2,1,2,1,2,3,4,1,2,3,4,1,4,3,2,1,4,3,2,1,2,3,4,3,2,1,2,3,2,1,2,1,1,3,2,1,1,3,2,1,3,1,2,1,3,1,2,1,1,3,2,3,2,1,2,1,2,4,1,3,1,1,4,3,1,1,4,2,3,3,1,2,3,3,1,3,1,1,4,1,2,4,1,3,1,1,2,2,3,1,4,2,3,1,4,1,1,1,2,1,1,1,2,2,3,1,4,3,1,1,2,2,1,1,4,1,2,1,4,1,2,1,4,1,1,2,4,1,1,2,4,1,2,1,4,2,1,1,4,3,1,1,2,1,2,3,1,1,2,3,1,1,1,3,2,1,1,3,2,1,2,3,1,3,1,1,2,1,2,4,4,1,1,3,2,1,1,3,2,2,4,1,4,2,4,1,4,1,1,3,2,1,2,4,4,2,1,1,4,2,1,1,4,2,1,1,4,2,3,1,4,2,3,1,4,2,1,1,4,2,1,1,4,1,1,2,2,3,2,1,4,3,2,1,4,1,3,1,2,1,3,1,2,3,2,1,4,1,1,2,2,1,1,4,4,1,2,1,1,1,2,1,1,2,3,1,4,2,3,1,4,1,2,1,1,1,1,4,4,3,1,1,4,3,1,1,2,3,1,1,2,3,1,2,4,3,1,2,4,3,1,1,2,3,1,1,4,3,2,1,2,1,1,1,2,1,1,1,2,1,1,2,2,1,1,2,2,1,1,1,2,3,2,1,2,1,2,4,2,1,2,3,4,1,2,3,4,1,1,3,2,1,1,3,2,1,2,3,4,1,2,4,2,3,2,1,4,1,2,3,2,1,2,3,2,2,1,1,4,2,1,1,4,1,2,3,2,3,2,1,4]
letting ub =  225
